NAME : portcgen-29-29
COMMENT : portcgen N=29, seed=29
TYPE : TSP
DIMENSION : 29
EDGE_WEIGHT_TYPE : EUC_2D
NODE_COORD_SECTION
1 -239086 -162714
2 -15875 424944
3 399030 -31571
4 212756 -77910
5 -125647 -87206
6 -220039 79106
7 -277514 -349127
8 -37567 -39562
9 56147 -104243
10 -254211 -253924
11 -296091 128282
12 200676 -59634
13 109354 345922
14 124189 85889
15 172109 304550
16 -20552 157802
17 -50314 -141480
18 -106036 -9424
19 -118308 49970
20 67477 129530
21 83230 459687
22 -318574 135734
23 -7501 4027
24 256055 211889
25 255735 -84765
26 101557 -4084
27 202843 140767
28 121686 193393
29 12904 299045
